; benchmark generated from python API
(set-info :status unknown)
(declare-fun x_months () Int)
(declare-fun x_beta () Int)
(assert
 (<= (- 1202) x_months))
(assert
 (>= 1209 x_months))
(assert
 (>= x_beta 0))
(assert
 (let ((?x226 (+ x_months 24003)))
 (let ((?x232 (- ?x226 (* (div (- ?x226 1) 12) 12))))
 (let ((?x251 (ite (or (= ?x232 4) (= ?x232 6) (= ?x232 9) (= ?x232 11)) 30 31)))
 (let (($x240 (and (= (mod (div (- ?x226 1) 12) 4) 0) (and (distinct (mod (div (- ?x226 1) 12) 100) 0) true))))
 (let ((?x245 (ite (or $x240 (= (mod (div (- ?x226 1) 12) 400) 0)) 29 28)))
 (< x_beta (ite (= ?x232 2) ?x245 ?x251))))))))
(assert
 (and (= x_months (- (+ (* 2020 12) 2) 24003)) (= 28 x_beta)))
(assert
 (let ((?x323 (+ x_beta 1)))
 (let ((?x325 (+ (+ x_months 12) 24003)))
 (let ((?x329 (- ?x325 (* (div (- ?x325 1) 12) 12))))
 (let ((?x345 (ite (or (= ?x329 4) (= ?x329 6) (= ?x329 9) (= ?x329 11)) 30 31)))
 (let (($x335 (and (= (mod (div (- ?x325 1) 12) 4) 0) (and (distinct (mod (div (- ?x325 1) 12) 100) 0) true))))
 (let (($x338 (or $x335 (= (mod (div (- ?x325 1) 12) 400) 0))))
 (let ((?x346 (ite (= ?x329 2) (ite $x338 29 28) ?x345)))
 (let ((?x350 (ite (> 1 ?x323) 1 (ite (> ?x323 ?x346) ?x346 ?x323))))
 (let ((?x354 (ite (> 1 ?x350) 1 (ite (> ?x350 ?x346) ?x346 ?x350))))
 (let ((?x369 (ite (= 2 ?x329) (ite $x338 31 31) (ite (= 1 ?x329) (ite $x338 0 0) 0))))
 (let ((?x379 (ite (= 4 ?x329) (ite $x338 91 90) (ite (= 3 ?x329) (ite $x338 60 59) ?x369))))
 (let ((?x389 (ite (= 6 ?x329) (ite $x338 152 151) (ite (= 5 ?x329) (ite $x338 121 120) ?x379))))
 (let ((?x399 (ite (= 8 ?x329) (ite $x338 213 212) (ite (= 7 ?x329) (ite $x338 182 181) ?x389))))
 (let ((?x409 (ite (= 10 ?x329) (ite $x338 274 273) (ite (= 9 ?x329) (ite $x338 244 243) ?x399))))
 (let ((?x419 (ite (= 12 ?x329) (ite $x338 335 334) (ite (= 11 ?x329) (ite $x338 305 304) ?x409))))
 (let ((?x359 (+ (* 365 (- (div (- ?x325 1) 12) 1)) (div (- (div (- ?x325 1) 12) 1) 4))))
 (let ((?x363 (+ (- ?x359 (div (- (div (- ?x325 1) 12) 1) 100)) (div (- (div (- ?x325 1) 12) 1) 400))))
 (let ((?x425 (+ (+ (- (+ (+ ?x363 ?x419) (- ?x354 1)) 730179) 0) 730179)))
 (let ((?x429 (mod ?x425 146097)))
 (let ((?x430 (div ?x429 36524)))
 (let ((?x432 (ite (<= 4 ?x430) 3 ?x430)))
 (let ((?x434 (- ?x429 (* ?x432 36524))))
 (let ((?x436 (mod ?x434 1461)))
 (let ((?x437 (div ?x436 365)))
 (let ((?x439 (ite (<= 4 ?x437) 3 ?x437)))
 (let ((?x446 (+ (+ (* (div ?x425 146097) 400) (* ?x432 100)) (* (div ?x434 1461) 4))))
 (let ((?x448 (+ (+ ?x446 ?x439) 1)))
 (let (($x456 (or (and (= (mod ?x448 4) 0) (and (distinct (mod ?x448 100) 0) true)) (= (mod ?x448 400) 0))))
 (let ((?x441 (- ?x436 (* ?x439 365))))
 (let ((?x458 (ite $x456 31 31)))
 (let (($x469 (>= ?x441 ?x458)))
 (let ((?x495 (ite $x469 (+ (- ?x441 ?x458) 1) (+ (- ?x441 (ite $x456 0 0)) 1))))
 (let ((?x459 (ite $x456 60 59)))
 (let (($x471 (>= ?x441 ?x459)))
 (let ((?x460 (ite $x456 91 90)))
 (let (($x473 (>= ?x441 ?x460)))
 (let ((?x501 (ite $x473 (+ (- ?x441 ?x460) 1) (ite $x471 (+ (- ?x441 ?x459) 1) ?x495))))
 (let ((?x461 (ite $x456 121 120)))
 (let (($x475 (>= ?x441 ?x461)))
 (let ((?x462 (ite $x456 152 151)))
 (let (($x477 (>= ?x441 ?x462)))
 (let ((?x507 (ite $x477 (+ (- ?x441 ?x462) 1) (ite $x475 (+ (- ?x441 ?x461) 1) ?x501))))
 (let ((?x463 (ite $x456 182 181)))
 (let (($x479 (>= ?x441 ?x463)))
 (let ((?x464 (ite $x456 213 212)))
 (let (($x481 (>= ?x441 ?x464)))
 (let ((?x513 (ite $x481 (+ (- ?x441 ?x464) 1) (ite $x479 (+ (- ?x441 ?x463) 1) ?x507))))
 (let ((?x465 (ite $x456 244 243)))
 (let (($x483 (>= ?x441 ?x465)))
 (let ((?x466 (ite $x456 274 273)))
 (let (($x485 (>= ?x441 ?x466)))
 (let ((?x519 (ite $x485 (+ (- ?x441 ?x466) 1) (ite $x483 (+ (- ?x441 ?x465) 1) ?x513))))
 (let ((?x467 (ite $x456 305 304)))
 (let (($x487 (>= ?x441 ?x467)))
 (let ((?x468 (ite $x456 335 334)))
 (let (($x489 (>= ?x441 ?x468)))
 (let ((?x525 (ite $x489 (+ (- ?x441 ?x468) 1) (ite $x487 (+ (- ?x441 ?x467) 1) ?x519))))
 (let (($x355 (= 0 0)))
 (let ((?x476 (ite $x475 5 (ite $x473 4 (ite $x471 3 (ite $x469 2 1))))))
 (let ((?x484 (ite $x483 9 (ite $x481 8 (ite $x479 7 (ite $x477 6 ?x476))))))
 (let ((?x530 (+ (* (ite $x355 (div (- ?x325 1) 12) ?x448) 12) (ite $x355 ?x329 (ite $x489 12 (ite $x487 11 (ite $x485 10 ?x484)))))))
 (and (= (- ?x530 24003) (- (+ (* 2021 12) 2) 24003)) (= 27 (- (ite $x355 ?x354 ?x525) 1)))))))))))))))))))))))))))))))))))))))))))))))))))))))))))))))))
(assert
 (and (= x_months (- (+ (* 2020 12) 2) 24003)) (= 28 x_beta)))
(check-sat)
